0 5240.85
1 5211.06
2 5211.06
3 5211.06
4 5211.06
5 5211.06
6 5211.06
7 5211.06
8 5211.06
9 5211.06
10 5211.06
11 5211.06
12 5199.58
13 5199.58
14 5199.58
15 5199.58
16 5199.58
17 5163.90
18 5163.90
19 5163.90
20 5163.90
21 5163.90
22 5163.90
23 5163.90
24 5163.90
25 5153.37
26 5147.07
27 5147.07
28 5147.07
29 5147.07
30 5147.07
31 5124.13
32 5124.13
33 5124.13
34 5124.13
35 5124.13
36 5124.13
37 5124.13
38 5117.91
39 5110.36
40 5110.36
41 5110.36
42 5099.25
43 5099.25
44 5099.25
45 5099.25
46 5099.25
47 5099.25
48 5099.25
49 5099.25
50 5099.25
51 5099.25
52 5098.55
53 5097.06
54 5097.06
55 5097.06
56 5097.06
57 5097.06
58 5097.06
59 5097.06
60 5097.06
61 5097.06
62 5097.06
63 5097.06
64 5097.06
65 5025.82
66 5025.82
67 5025.82
68 5025.82
69 5025.82
70 5025.82
71 5025.82
72 5025.82
73 5025.82
74 5025.82
75 5025.82
76 5025.82
77 5025.82
78 5025.82
79 5025.82
80 5025.82
81 5025.82
82 5025.82
83 5025.82
84 5025.82
85 5025.82
86 5025.82
87 5025.82
88 5025.82
89 5025.82
90 5025.82
91 5025.82
92 5025.82
93 5025.82
94 5025.82
95 5025.82
96 5025.82
97 5025.82
98 5025.82
99 5025.82
100 5025.82
101 5025.82
102 5025.82
103 5025.82
104 5025.82
105 5025.82
106 5025.82
107 5025.82
108 5025.82
109 5025.82
110 5025.82
111 5025.82
112 5025.82
113 5025.82
114 5025.82
115 5025.82
116 5025.82
117 5025.82
118 5025.82
119 5025.82
120 5023.05
121 5023.05
122 5023.05
123 5023.05
124 5023.05
125 5023.05
126 5023.05
127 5023.05
128 5023.05
129 5016.13
130 5016.13
131 5016.13
132 5016.13
133 5016.13
134 5016.13
135 5016.13
136 5016.13
137 5016.13
138 5016.13
139 5016.13
140 5016.13
141 5016.13
142 5016.13
143 5016.13
144 5016.13
145 5016.13
146 5016.13
147 5016.13
148 5016.13
149 5016.13
150 5016.13
151 5016.13
152 5016.13
153 5016.13
154 5016.13
155 5016.13
156 5016.13
157 5016.13
158 5016.13
159 5016.13
160 5016.13
161 5016.13
162 5016.13
163 5016.13
164 5016.13
165 5016.13
166 5016.13
167 5016.13
168 5016.13
169 5016.13
170 5016.13
171 5016.13
172 5016.13
173 5007.84
174 5007.84
175 5007.84
176 5007.84
177 5007.84
178 5007.84
179 5007.84
180 5007.84
181 5007.84
182 5007.84
183 5007.84
184 5007.84
185 5007.84
186 5007.84
187 5007.84
188 5007.84
189 5007.84
190 5007.84
191 5007.84
192 5007.84
193 5007.84
194 5007.84
195 5007.84
196 5007.84
197 5007.84
198 5007.84
199 5007.84
200 5007.84
201 5007.84
202 5007.84
203 5007.84
204 5007.84
205 5007.84
206 5007.84
207 5007.84
208 5007.84
209 5005.07
210 5005.07
211 5005.07
212 5005.07
213 5005.07
214 5005.07
215 5005.07
216 5005.07
217 5005.07
218 5005.07
219 5005.07
220 5005.07
221 5005.07
222 5005.07
223 5005.07
224 5005.07
225 4986.28
226 4986.28
227 4986.28
228 4986.28
229 4986.28
230 4986.28
231 4974.80
232 4974.80
233 4974.80
234 4974.80
235 4974.80
236 4974.80
237 4974.80
238 4974.80
239 4974.80
240 4974.80
241 4974.80
242 4974.80
243 4974.80
244 4974.80
245 4974.80
246 4974.80
247 4974.80
248 4974.80
249 4974.80
250 4974.80
251 4974.80
252 4974.80
253 4974.80
254 4974.80
255 4974.80
256 4974.80
257 4974.80
258 4974.80
259 4974.80
260 4974.80
261 4974.80
262 4974.80
263 4974.80
264 4974.80
265 4974.80
266 4974.80
267 4974.80
268 4974.80
269 4974.80
270 4974.80
271 4974.80
272 4974.80
273 4974.80
274 4974.80
275 4974.80
276 4974.80
277 4974.80
278 4974.80
279 4974.80
280 4974.80
281 4974.80
282 4974.80
283 4974.80
284 4974.80
285 4974.80
286 4974.80
287 4974.80
288 4974.80
289 4974.80
290 4974.80
291 4974.80
292 4974.80
293 4974.80
294 4974.80
295 4974.80
296 4974.80
297 4974.80
298 4974.80
299 4974.80
300 4974.80
301 4974.80
302 4974.80
303 4974.80
304 4974.80
305 4974.80
306 4974.80
307 4974.80
308 4974.80
309 4974.80
310 4974.80
311 4974.80
312 4974.80
313 4974.80
314 4974.80
315 4974.80
316 4974.80
317 4974.80
318 4974.80
319 4974.80
320 4974.80
321 4974.80
322 4974.80
323 4974.80
324 4974.80
325 4974.80
326 4974.80
327 4974.80
328 4973.83
329 4973.83
330 4973.83
331 4973.83
332 4973.83
333 4973.83
334 4973.83
335 4973.83
336 4973.83
337 4973.83
338 4973.83
339 4973.83
340 4973.83
341 4973.83
342 4973.83
343 4973.83
344 4973.83
345 4973.83
346 4973.83
347 4973.83
348 4973.83
349 4973.83
350 4973.83
351 4973.83
352 4973.83
353 4973.83
354 4973.83
355 4973.83
356 4973.83
357 4973.83
358 4973.83
359 4973.83
360 4973.83
361 4973.83
362 4973.83
363 4973.83
364 4973.83
365 4973.83
366 4973.83
367 4973.83
368 4973.83
369 4973.83
370 4973.83
371 4973.83
372 4973.83
373 4973.83
374 4973.83
375 4973.83
376 4973.83
377 4973.83
378 4973.83
379 4973.83
380 4973.83
381 4973.83
382 4973.83
383 4973.83
384 4973.83
385 4973.83
386 4973.83
387 4973.83
388 4973.83
389 4973.83
390 4973.83
391 4973.83
392 4973.83
393 4950.13
394 4950.13
395 4950.13
396 4950.13
397 4949.68
398 4949.68
399 4949.68
400 4949.68
401 4949.68
402 4949.68
403 4949.68
404 4949.68
405 4949.68
406 4949.68
407 4949.68
408 4949.68
409 4949.68
410 4949.68
411 4949.68
412 4949.68
413 4949.68
414 4949.68
415 4949.68
416 4949.68
417 4949.68
418 4949.68
419 4949.68
420 4949.68
421 4949.68
422 4949.68
423 4949.68
424 4949.68
425 4949.68
426 4949.68
427 4949.68
428 4949.68
429 4949.68
430 4949.68
431 4949.68
432 4949.68
433 4949.68
434 4949.68
435 4949.68
436 4949.68
437 4949.68
438 4949.68
439 4949.68
440 4940.83
441 4940.83
442 4940.83
443 4940.83
444 4940.83
445 4940.83
446 4940.83
447 4940.83
448 4940.83
449 4940.83
450 4940.83
451 4940.83
452 4940.83
453 4940.83
454 4940.83
455 4940.83
456 4940.83
457 4940.83
458 4940.83
459 4940.83
460 4940.83
461 4940.83
462 4940.83
463 4940.83
464 4940.83
465 4940.83
466 4940.83
467 4940.83
468 4940.83
469 4940.83
470 4940.83
471 4940.83
472 4940.83
473 4940.83
474 4940.83
475 4940.83
476 4940.83
477 4940.83
478 4940.83
479 4940.83
480 4940.83
481 4940.83
482 4940.83
483 4940.83
484 4940.83
485 4940.83
486 4940.83
487 4940.83
488 4940.83
489 4940.83
490 4940.83
491 4940.83
492 4940.83
493 4940.83
494 4940.83
495 4940.83
496 4940.83
497 4940.83
498 4940.83
499 4940.83
6 6 8 3 0 0 